p td 80 41 
45 70
8 20
78 33
78 66
75 22
15 19
15 33
40 54
69 44
16 54
30 74
42 80
6 44
6 62
4 64
68 20
68 66
63 14
26 62
23 64
17 9
72 70
29 22
67 58
38 20
65 58
60 35
18 55
18 58
43 66
21 36
21 44
21 55
61 9
2 62
2 66
48 36
13 9
53 70
46 58
47 36
